7375
0 0 0 0 0 0 1 0 0 1 1 0 0 0 1 0 0 1 0 0 0 0 0 0 0 1 1 1 0 1 
29 6 6 6 6 6 6 6 29 6 6 6 6 6 6 6 6 6 6 10 6 10 9 10 9 10 10 14 14 14 14 14 14 14 14 14 17 17 17 17 17 17 17 25 17 25 17 17 25 17 25 25 26 25 25 25 25 25 26 26 25 26 25 26 27 27 27 27 29 29 
